# Objective value = 75
WA1n 0
WA1p 0
WA2n 1
WA2p 0
WB1n 0
WB1p 0
WB2n 1
WB2p 0
WC1n 1
WC1p 0
WD1n 1
WD1p 0
WE1n 1
WE1p 0
WF1n 1
WF1p 0
WG1n 4
WG1p 0
WG2n 1
WG2p 0
WH1n 4
WH1p 0
WH2n 1
WH2p 0
WI1n 4
WI1p 0
WI2n 1
WI2p 0
WJ1n 0
WJ1p 5
WJ2n 0
WJ2p 0
WK1n 0
WK1p 4
WK2n 0
WK2p 1
WL1n 24
WL1p 0
WL2n 0
WL2p 0
WT1n 14
WT1p 0
100 114
a 1
b 1
c 1
d 1
e 1
f 1
g 1
h 1
i 1
j 1
k 1
l 1
m 1
n 1
o 1
p 1
q 1
r 1
s 0
t 0
u 1
